0_instance_selection/optil_deployment/lite/full/vc-lite_006.gr
p td 313 566
1 294
1 97
1 148
1 155
1 158
1 196
1 199
1 205
294 34
294 36
294 44
294 110
294 125
294 176
294 219
294 289
294 291
2 295
2 41
2 103
2 114
2 213
2 273
295 159
295 183
295 233
295 241
295 259
3 296
3 39
3 67
3 87
3 115
3 118
3 190
3 209
3 268
3 278
3 290
296 38
296 42
296 98
296 105
296 142
296 229
4 297
4 24
4 82
4 127
4 210
4 246
4 277
4 286
297 61
297 164
297 168
297 206
297 217
297 231
5 298
5 66
5 71
5 74
5 78
5 101
5 181
5 215
5 226
5 250
5 282
298 43
298 50
298 62
298 135
298 156
6 299
6 63
6 85
6 167
6 200
6 275
299 59
299 77
299 149
7 300
7 49
7 55
7 76
7 120
7 150
7 153
7 197
7 203
300 26
300 116
300 182
300 279
300 287
8 301
8 89
8 91
8 99
8 152
8 222
8 232
8 238
8 257
301 60
301 83
301 119
301 144
301 177
301 193
9 302
9 51
9 57
9 136
9 145
9 283
302 72
302 79
302 139
302 235
10 303
10 32
10 48
10 108
10 122
10 151
10 194
10 221
303 25
303 40
303 75
303 86
303 95
303 96
303 106
303 123
303 130
303 212
303 218
303 265
303 270
11 304
11 46
11 54
11 81
11 163
11 173
11 192
11 236
11 237
11 252
304 73
304 134
304 201
304 204
304 261
12 305
12 37
12 165
12 170
12 184
12 243
12 255
12 266
305 27
305 129
305 171
305 224
305 293
13 306
13 124
13 128
13 138
13 157
13 234
13 239
13 262
306 84
306 174
306 189
306 223
306 242
306 251
306 285
14 307
14 53
14 113
14 132
14 143
14 146
14 211
14 260
14 264
14 288
14 292
307 30
307 225
307 230
307 244
307 272
307 281
15 308
15 29
15 35
15 70
15 88
15 104
15 140
15 187
15 214
308 92
308 121
308 160
308 180
308 267
16 309
16 23
16 52
16 68
16 126
16 191
16 245
16 248
309 93
309 100
309 112
309 271
17 310
17 69
17 80
17 102
17 147
17 162
17 216
17 220
17 256
310 22
310 166
310 227
310 240
310 263
18 311
18 33
18 45
18 64
18 111
18 154
18 161
18 178
18 186
18 202
18 228
18 258
18 269
311 90
311 107
311 131
311 172
311 175
311 208
311 253
311 274
19 312
19 56
19 65
19 141
19 185
19 207
19 254
312 21
312 58
312 94
312 109
312 133
312 276
312 280
20 313
20 31
20 47
20 117
20 169
20 284
313 28
313 137
313 179
313 188
313 195
313 198
313 247
313 249
21 22
21 23
22 23
24 25
24 26
25 26
27 28
27 29
28 29
30 31
30 32
31 32
33 34
33 35
34 35
36 37
36 38
37 38
39 40
39 41
40 41
42 43
42 44
43 44
45 46
45 47
46 47
48 49
48 50
49 50
51 52
51 53
52 53
54 55
54 56
55 56
57 58
57 59
58 59
60 61
60 62
61 62
63 64
63 65
64 65
66 67
66 68
67 68
69 70
69 71
70 71
72 73
72 74
73 74
75 76
75 77
76 77
78 79
78 80
79 80
81 82
81 83
82 83
84 85
84 86
85 86
87 88
87 89
88 89
90 91
90 92
91 92
93 94
93 95
94 95
96 97
96 98
97 98
99 100
99 101
100 101
102 103
102 104
103 104
105 106
105 107
106 107
108 109
108 110
109 110
111 112
111 113
112 113
114 115
114 116
115 116
117 118
117 119
118 119
120 121
120 122
121 122
123 124
123 125
124 125
126 127
126 128
127 128
129 130
129 131
130 131
132 133
132 134
133 134
135 136
135 137
136 137
138 139
138 140
139 140
141 142
141 143
142 143
144 145
144 146
145 146
147 148
147 149
148 149
150 151
150 152
151 152
153 154
153 155
154 155
156 157
156 158
157 158
159 160
159 161
160 161
162 163
162 164
163 164
165 166
165 167
166 167
168 169
168 170
169 170
171 172
171 173
172 173
174 175
174 176
175 176
177 178
177 179
178 179
180 181
180 182
181 182
183 184
183 185
184 185
186 187
186 188
187 188
189 190
189 191
190 191
192 193
192 194
193 194
195 196
195 197
196 197
198 199
198 200
199 200
201 202
201 203
202 203
204 205
204 206
205 206
207 208
207 209
208 209
210 211
210 212
211 212
213 214
213 215
214 215
216 217
216 218
217 218
219 220
219 221
220 221
222 223
222 224
223 224
225 226
225 227
226 227
228 229
228 230
229 230
231 232
231 233
232 233
234 235
234 236
235 236
237 238
237 239
238 239
240 241
240 242
241 242
243 244
243 245
244 245
246 247
246 248
247 248
249 250
249 251
250 251
252 253
252 254
253 254
255 256
255 257
256 257
258 259
258 260
259 260
261 262
261 263
262 263
264 265
264 266
265 266
267 268
267 269
268 269
270 271
270 272
271 272
273 274
273 275
274 275
276 277
276 278
277 278
279 280
279 281
280 281
282 283
282 284
283 284
285 286
285 287
286 287
288 289
288 290
289 290
291 292
291 293
292 293
