0_instance_selection/optil_deployment/lite/optil/private/vc-lite_006.out
s vc 313 202
3
4
5
6
7
9
13
16
17
18
19
20
21
22
24
26
28
29
30
32
34
35
37
38
40
41
42
43
45
46
48
50
51
53
54
55
58
59
61
62
63
65
67
68
69
70
72
74
75
77
78
79
81
82
84
86
88
89
90
91
93
94
97
98
99
100
103
104
105
107
108
109
112
113
114
116
117
119
120
122
123
124
126
128
129
131
132
133
135
137
139
140
142
143
144
146
148
149
151
152
153
155
156
158
159
160
163
164
165
166
168
170
172
173
174
175
177
179
181
182
183
184
187
188
189
190
192
194
195
196
198
199
202
203
205
206
207
208
210
211
213
214
217
218
220
221
222
223
226
227
228
229
231
232
235
236
237
238
240
242
243
245
246
247
249
251
252
253
255
257
258
260
262
263
264
266
267
268
270
271
273
274
276
277
279
280
282
283
285
287
288
289
291
292
294
295
301
303
304
305
307
308
